1111100 AB
360 393 421 446 463 488 514 532 550 578 596 613 641 658 686 721 759 793 820 856 883 901 926 946 969 992 1010 1036 1059 1083 1105 1128 1150 1171 1202 1232 1263 1289 1325 1350
1111100 BA
388 421 452 477 494 519 544 561 579 607 625 642 670 687 715 750 788 822 849 885 912 930 955 977 1000 1023 1041 1067 1090 1114 1136 1157 1178 1199 1230 1260 1291 1317 1353 1378
0000011 AB
360 394 426 461 496 531 564 596 629 661 694 726 759 791 824 857 889 922 954 987 1019 1052 1084 1116 1149 1182 1215 1251 1287 1350
0000011 BA
388 422 456 491 526 561 594 626 659 691 724 756 789 821 854 887 919 952 984 1017 1049 1082 1114 1146 1179 1212 1245 1280 1315 1378
